Figure: large_3
File Number: 17
Nodes: 300
Edges: 22472
Max Generations: 1000
Population Size: 100
Mutation Rate: 0.01
Colors Used: 160
Runtime: 33.51

Generation,Average Fitness,Best Fitness
0,141.7,111
1,137.05,111
2,135.11,97
3,131.43,97
4,128.93,97
5,127.07,97
6,126.41,97
7,125.97,97
8,123.43,97
9,123.07,96
10,119.25,95
11,118.08,95
12,117.0,95
13,113.3,92
14,110.37,89
15,107.46,87
16,105.08,85
17,100.75,82
18,98.23,82
19,95.15,77
20,92.8,76
21,90.45,73
22,88.14,73
23,86.8,71
24,84.52,71
25,82.88,68
26,81.87,63
27,81.09,63
28,81.16,63
29,80.26,63
30,77.91,62
31,77.95,60
32,76.26,60
33,74.05,60
34,71.76,60
35,70.4,59
36,70.48,59
37,69.87,59
38,69.68,59
39,69.4,58
40,68.45,58
41,67.65,56
42,67.89,53
43,67.86,53
44,66.41,50
45,64.56,50
46,63.37,50
47,63.04,50
48,61.74,50
49,62.13,50
50,61.0,47
51,60.32,46
52,59.69,45
53,58.48,45
54,58.93,45
55,58.39,45
56,57.17,45
57,56.92,40
58,56.0,40
59,55.94,40
60,54.75,40
61,53.75,39
62,51.63,39
63,51.53,39
64,50.29,38
65,49.51,36
66,48.7,36
67,48.36,36
68,46.87,35
69,46.71,35
70,45.82,35
71,45.23,33
72,44.99,33
73,44.83,33
74,45.14,33
75,43.0,32
76,42.9,32
77,42.5,31
78,42.02,31
79,41.84,31
80,41.17,29
81,40.68,29
82,40.53,29
83,39.77,29
84,39.43,28
85,39.23,28
86,38.95,28
87,38.7,28
88,37.99,28
89,37.79,28
90,37.75,28
91,37.53,28
92,37.84,28
93,37.72,27
94,37.62,27
95,38.13,27
96,37.3,27
97,37.06,27
98,36.39,26
99,36.28,26
100,36.43,26
101,36.86,26
102,37.37,26
103,37.16,26
104,37.14,19
105,36.39,19
106,36.84,19
107,36.14,19
108,34.81,19
109,33.86,19
110,32.89,19
111,32.29,19
112,31.05,19
113,30.48,19
114,29.3,19
115,29.24,19
116,29.19,19
117,29.02,19
118,29.42,19
119,29.54,19
120,29.93,19
121,29.73,19
122,30.57,19
123,30.34,19
124,30.41,18
125,30.23,18
126,29.22,18
127,29.08,18
128,29.45,18
129,28.88,18
130,29.0,18
131,28.21,18
132,28.8,18
133,29.57,18
134,28.41,18
135,28.02,18
136,28.19,18
137,28.31,18
138,28.48,18
139,28.67,18
140,28.01,18
141,28.49,18
142,28.07,18
143,28.13,18
144,28.24,18
145,27.72,18
146,28.13,18
147,28.4,18
148,27.72,18
149,27.22,17
150,27.74,17
151,27.37,16
152,27.71,16
153,27.54,16
154,27.84,16
155,27.98,16
156,28.79,16
157,28.03,16
158,28.25,16
159,28.2,16
160,28.45,16
161,27.55,16
162,26.99,16
163,26.54,16
164,26.26,16
165,26.31,16
166,26.76,16
167,26.23,16
168,26.18,16
169,26.55,16
170,26.75,16
171,26.4,16
172,25.58,16
173,25.58,16
174,25.77,16
175,26.35,16
176,26.31,16
177,26.98,16
178,26.94,16
179,27.54,16
180,27.32,16
181,27.3,16
182,26.65,16
183,27.29,16
184,27.33,16
185,26.62,16
186,26.87,16
187,26.78,16
188,26.1,16
189,26.5,16
190,26.45,16
191,26.82,16
192,27.67,16
193,28.07,16
194,27.43,16
195,27.27,16
196,27.35,16
197,27.14,16
198,27.6,16
199,27.21,16
200,27.64,15
201,27.33,15
202,27.07,15
203,26.97,15
204,26.82,15
205,27.03,15
206,26.44,15
207,25.52,15
208,25.65,15
209,26.28,15
210,25.82,15
211,25.61,15
212,25.12,15
213,25.16,15
214,25.39,15
215,25.02,14
216,25.7,14
217,25.62,14
218,24.96,14
219,25.55,14
220,25.86,14
221,26.45,14
222,26.18,14
223,25.97,14
224,24.86,14
225,24.58,14
226,25.05,14
227,25.07,14
228,24.97,14
229,25.14,14
230,25.18,14
231,25.16,14
232,24.15,14
233,24.8,14
234,25.32,14
235,24.74,14
236,24.5,14
237,24.67,14
238,24.81,14
239,25.6,14
240,25.39,13
241,25.15,13
242,25.61,13
243,25.77,13
244,25.4,13
245,24.79,13
246,24.77,13
247,25.47,13
248,25.51,13
249,26.13,13
250,25.43,13
251,25.41,13
252,25.16,13
253,25.4,13
254,25.37,13
255,25.14,13
256,24.63,13
257,25.21,13
258,24.41,13
259,24.73,12
260,23.67,12
261,23.51,12
262,23.32,12
263,23.31,12
264,23.53,12
265,24.19,12
266,23.72,12
267,22.99,12
268,22.55,12
269,22.02,12
270,22.27,12
271,21.56,12
272,21.84,12
273,22.19,12
274,22.18,12
275,22.72,12
276,23.07,12
277,23.38,12
278,24.27,12
279,24.12,12
280,25.03,12
281,24.89,12
282,25.85,12
283,24.99,12
284,25.17,12
285,25.33,12
286,24.34,12
287,24.01,12
288,23.29,12
289,22.93,12
290,22.58,12
291,23.33,12
292,23.65,12
293,23.02,12
294,22.72,12
295,23.37,12
296,23.1,12
297,22.79,12
298,22.8,12
299,22.47,12
300,22.88,12
301,22.2,12
302,22.0,12
303,22.54,12
304,22.82,11
305,22.74,11
306,22.66,11
307,22.43,11
308,22.13,11
309,21.72,11
310,20.83,11
311,21.45,11
312,21.47,11
313,21.94,11
314,22.72,11
315,22.4,11
316,22.65,11
317,22.79,11
318,21.95,11
319,22.03,11
320,22.15,11
321,21.8,11
322,22.69,11
323,22.79,11
324,22.15,11
325,22.64,11
326,23.52,11
327,23.65,11
328,24.04,11
329,24.5,11
330,23.97,11
331,23.19,11
332,22.49,11
333,22.29,11
334,22.54,11
335,23.38,11
336,22.6,11
337,23.27,11
338,22.91,11
339,23.17,11
340,22.31,11
341,22.11,11
342,22.05,11
343,22.0,11
344,22.66,11
345,23.1,11
346,23.2,11
347,22.89,11
348,22.49,11
349,22.3,11
350,22.48,11
351,22.69,11
352,21.98,11
353,22.14,11
354,21.7,10
355,21.42,10
356,21.61,9
357,21.51,9
358,21.58,9
359,21.95,9
360,22.22,9
361,22.13,9
362,21.86,9
363,21.38,9
364,20.76,9
365,20.76,9
366,21.05,9
367,20.91,8
368,20.34,8
369,21.27,8
370,20.91,8
371,20.63,8
372,20.97,8
373,20.51,8
374,19.84,8
375,19.91,8
376,20.22,8
377,20.03,8
378,20.9,8
379,20.69,8
380,20.55,8
381,20.28,8
382,20.14,8
383,20.08,8
384,20.09,8
385,19.97,8
386,20.26,8
387,20.64,8
388,20.67,8
389,20.78,8
390,21.15,8
391,21.11,8
392,21.54,8
393,21.39,8
394,21.32,8
395,21.48,8
396,21.82,8
397,21.68,8
398,20.85,8
399,21.16,8
400,21.19,8
401,20.71,8
402,20.31,8
403,20.09,8
404,20.67,8
405,20.1,8
406,19.85,8
407,19.69,8
408,19.23,8
409,19.52,8
410,19.78,7
411,19.63,7
412,19.96,7
413,20.33,7
414,20.55,7
415,20.85,7
416,20.65,7
417,20.56,7
418,20.1,7
419,20.37,7
420,20.19,7
421,19.28,7
422,18.95,7
423,19.8,7
424,19.38,7
425,19.33,7
426,19.58,7
427,20.65,7
428,19.87,7
429,20.14,7
430,20.47,7
431,20.65,7
432,20.7,7
433,20.36,7
434,20.56,7
435,20.05,7
436,20.61,7
437,19.72,7
438,19.62,7
439,19.94,7
440,19.97,7
441,20.28,7
442,20.96,7
443,20.87,7
444,20.96,7
445,20.62,7
446,20.48,7
447,19.89,7
448,20.15,7
449,20.3,7
450,20.74,7
451,22.06,7
452,21.63,7
453,21.53,7
454,21.44,7
455,22.13,7
456,21.56,7
457,22.13,7
458,21.36,7
459,20.85,7
460,21.17,7
461,20.52,7
462,19.53,7
463,18.79,7
464,18.68,7
465,18.12,7
466,18.79,7
467,19.33,7
468,18.58,7
469,17.99,7
470,17.68,7
471,18.15,6
472,18.13,6
473,17.89,6
474,18.24,6
475,18.61,6
476,18.72,6
477,18.03,6
478,17.86,6
479,17.68,6
480,17.73,6
481,17.65,6
482,16.94,6
483,16.41,5
484,16.72,5
485,16.28,5
486,16.37,5
487,15.47,5
488,15.25,5
489,15.43,5
490,15.74,5
491,15.55,5
492,15.31,5
493,15.41,5
494,16.39,5
495,16.76,5
496,17.15,5
497,16.49,5
498,16.95,5
499,16.31,5
500,16.62,5
501,16.32,5
502,16.4,5
503,16.65,5
504,16.84,5
505,16.09,5
506,15.95,5
507,15.55,5
508,15.77,5
509,16.1,5
510,15.76,5
511,15.5,5
512,15.25,5
513,16.59,5
514,17.01,5
515,17.1,5
516,17.53,5
517,18.26,5
518,18.17,5
519,18.08,5
520,18.64,5
521,18.56,5
522,18.22,5
523,17.62,5
524,17.23,5
525,18.0,5
526,19.14,5
527,17.73,5
528,17.59,5
529,18.49,5
530,18.06,5
531,17.47,5
532,17.96,5
533,18.82,5
534,18.89,5
535,18.65,5
536,19.01,5
537,18.85,5
538,19.16,5
539,19.55,5
540,19.74,5
541,19.7,5
542,19.31,5
543,19.02,5
544,18.46,5
545,18.07,5
546,18.25,5
547,17.32,5
548,17.56,5
549,18.03,5
550,18.34,5
551,17.97,5
552,17.92,5
553,17.19,5
554,17.07,5
555,17.14,5
556,17.1,5
557,17.45,5
558,18.24,5
559,18.5,5
560,18.36,5
561,18.96,5
562,18.42,5
563,18.8,5
564,19.1,5
565,18.52,5
566,17.83,5
567,17.98,5
568,18.32,5
569,16.8,5
570,16.44,5
571,17.0,5
572,17.28,5
573,17.47,5
574,17.74,5
575,17.35,5
576,17.73,5
577,17.66,5
578,18.64,5
579,19.02,5
580,18.21,5
581,17.57,5
582,17.29,5
583,17.75,5
584,18.07,5
585,18.26,5
586,19.09,5
587,19.0,5
588,19.38,5
589,19.9,5
590,20.14,5
591,20.5,5
592,20.52,5
593,20.54,5
594,21.83,5
595,21.36,5
596,20.86,5
597,20.39,5
598,20.27,5
599,18.98,5
600,18.96,5
601,18.87,5
602,18.7,5
603,19.45,5
604,19.36,5
605,18.75,5
606,17.98,5
607,18.21,5
608,17.98,5
609,18.17,5
610,17.52,5
611,17.21,5
612,16.39,5
613,16.48,5
614,16.22,5
615,15.28,4
616,15.69,4
617,15.93,4
618,16.67,4
619,16.89,4
620,17.1,4
621,16.51,4
622,16.6,4
623,16.24,4
624,16.5,4
625,17.21,4
626,17.55,4
627,17.2,4
628,17.47,4
629,16.72,4
630,17.14,4
631,16.81,4
632,17.09,4
633,16.58,4
634,16.76,4
635,16.89,4
636,16.9,4
637,16.31,4
638,16.18,4
639,16.19,4
640,16.19,4
641,16.45,4
642,16.25,4
643,17.0,4
644,17.71,4
645,17.68,4
646,18.21,4
647,18.34,4
648,19.85,4
649,20.41,4
650,19.85,4
651,18.98,4
652,19.33,4
653,19.07,4
654,18.58,4
655,18.59,4
656,18.81,4
657,19.01,4
658,19.44,4
659,19.24,4
660,19.51,4
661,18.54,4
662,17.98,4
663,18.63,4
664,18.64,4
665,18.79,4
666,18.38,4
667,16.44,4
668,17.05,4
669,16.43,4
670,16.3,4
671,16.65,4
672,16.82,4
673,16.69,4
674,16.38,4
675,16.45,4
676,16.53,4
677,16.07,4
678,15.71,4
679,14.99,4
680,15.3,4
681,14.72,4
682,14.96,4
683,15.49,4
684,15.84,4
685,16.86,4
686,17.07,4
687,16.45,4
688,16.74,4
689,16.44,4
690,15.99,3
691,15.53,3
692,15.74,3
693,15.46,3
694,15.46,3
695,15.69,3
696,15.97,3
697,15.77,3
698,16.13,3
699,16.33,3
700,15.78,3
701,14.88,3
702,14.13,3
703,14.76,3
704,14.48,3
705,14.75,3
706,15.39,3
707,15.38,3
708,15.79,3
709,16.37,3
710,16.18,3
711,16.6,3
712,17.39,3
713,17.36,3
714,17.4,3
715,17.33,3
716,17.58,3
717,18.47,3
718,17.79,3
719,17.67,3
720,18.19,3
721,18.5,3
722,18.65,3
723,19.28,3
724,18.55,3
725,19.07,3
726,19.18,3
727,18.75,3
728,19.37,3
729,19.23,3
730,19.42,3
731,19.51,3
732,17.94,3
733,17.02,3
734,17.43,3
735,17.0,3
736,17.03,3
737,16.12,3
738,16.03,3
739,16.8,3
740,16.52,3
741,17.53,3
742,16.97,3
743,17.55,3
744,18.21,3
745,18.3,3
746,18.24,3
747,18.27,3
748,16.82,3
749,16.71,3
750,15.97,3
751,16.06,3
752,15.92,3
753,16.78,3
754,16.99,3
755,16.97,3
756,16.89,3
757,16.91,3
758,15.82,3
759,15.76,3
760,15.53,3
761,15.85,3
762,15.65,3
763,15.58,3
764,15.02,3
765,15.46,3
766,16.36,3
767,16.54,3
768,15.94,3
769,16.05,3
770,15.62,3
771,15.0,3
772,14.66,3
773,14.38,3
774,15.02,3
775,15.24,3
776,15.36,3
777,15.8,3
778,15.42,3
779,14.65,3
780,14.79,3
781,15.46,3
782,15.41,3
783,15.15,3
784,15.44,3
785,15.32,3
786,14.41,3
787,15.04,3
788,15.5,3
789,15.93,3
790,16.15,3
791,15.41,3
792,15.28,3
793,15.17,3
794,14.86,3
795,14.89,3
796,15.14,3
797,15.36,3
798,15.02,3
799,15.02,3
800,15.82,3
801,16.02,3
802,16.26,3
803,16.59,3
804,16.51,3
805,16.7,3
806,16.27,3
807,16.57,3
808,16.82,3
809,16.36,3
810,16.23,3
811,16.17,3
812,15.93,3
813,15.6,3
814,15.66,3
815,14.66,3
816,14.16,3
817,14.35,3
818,14.69,3
819,15.35,3
820,15.33,3
821,15.58,3
822,15.27,3
823,15.3,3
824,15.54,3
825,15.02,3
826,15.58,3
827,15.08,3
828,15.1,3
829,14.86,3
830,14.73,3
831,15.42,3
832,16.05,3
833,16.1,3
834,16.26,3
835,16.51,3
836,16.12,3
837,16.14,3
838,16.66,3
839,16.6,3
840,16.11,3
841,16.41,3
842,16.2,3
843,16.19,3
844,16.2,3
845,15.2,3
846,15.23,3
847,15.77,3
848,15.85,3
849,16.08,3
850,16.58,3
851,16.77,3
852,16.41,3
853,16.03,3
854,16.3,3
855,16.84,3
856,16.55,3
857,17.37,3
858,17.31,3
859,17.09,3
860,16.57,3
861,16.37,3
862,15.86,3
863,16.08,3
864,16.21,3
865,16.14,3
866,17.06,3
867,17.59,3
868,17.52,3
869,16.54,3
870,16.62,3
871,17.81,3
872,15.98,3
873,15.66,3
874,14.31,3
875,14.01,3
876,14.05,3
877,13.93,3
878,14.52,3
879,15.08,3
880,15.37,3
881,15.21,3
882,14.16,3
883,13.03,3
884,13.28,3
885,13.74,3
886,14.47,3
887,14.46,3
888,14.27,3
889,14.08,3
890,14.29,3
891,14.45,3
892,14.67,3
893,14.17,3
894,14.69,3
895,14.65,3
896,14.24,3
897,14.58,3
898,15.21,3
899,15.1,3
900,15.29,3
901,15.55,3
902,15.55,3
903,15.43,3
904,15.67,3
905,15.86,3
906,16.3,3
907,15.99,3
908,16.03,3
909,16.53,3
910,17.13,3
911,17.45,3
912,17.14,3
913,16.76,3
914,16.47,3
915,15.95,3
916,15.8,3
917,16.05,3
918,16.78,3
919,16.7,3
920,16.47,3
921,17.8,3
922,16.97,3
923,16.6,3
924,17.13,3
925,16.89,3
926,16.07,3
927,15.97,3
928,15.54,3
929,14.38,3
930,14.65,3
931,14.68,3
932,14.95,3
933,15.33,3
934,15.52,3
935,15.98,3
936,16.86,3
937,16.69,3
938,16.4,3
939,16.45,3
940,16.65,3
941,16.96,3
942,17.61,3
943,18.1,3
944,18.88,3
945,19.29,3
946,18.61,3
947,18.45,3
948,18.84,3
949,18.8,3
950,19.04,3
951,18.96,3
952,17.36,3
953,16.27,3
954,15.1,3
955,14.61,3
956,14.9,3
957,15.13,3
958,13.89,3
959,13.96,3
960,14.77,3
961,14.27,3
962,14.68,3
963,14.43,3
964,14.86,3
965,15.26,3
966,15.04,3
967,16.0,3
968,15.79,3
969,16.03,3
970,16.36,3
971,16.9,3
972,16.21,3
973,15.39,3
974,15.74,3
975,15.39,3
976,14.49,3
977,14.44,3
978,14.43,3
979,15.61,3
980,16.32,3
981,16.59,3
982,16.24,3
983,14.92,3
984,15.45,3
985,15.42,3
986,15.47,3
987,15.15,3
988,15.84,3
989,15.54,3
990,15.03,3
991,15.67,3
992,15.02,3
993,14.86,3
994,14.94,3
995,14.46,3
996,14.14,3
997,13.93,3
998,14.15,3
999,14.95,3
